\ This file was automatically generated by Zimpl
\ set V:={1,2,3,4,5,6};
\ set E:={<1,2>,<2,3>,<2,4>,<4,5>,<5,6>,<3,5>,<3,6>};
\ var x[E];
\ subto v1: sum <1,i> in E do x[1,i]==1;
\ subto v2: sum<i,6> in E do x[i,6]==1;
\ subto v3: forall <v> in V\{1,6} do sum <v,i> in E do x[v,i]== sum<i,v> in E do x[i,v];
\ minimize f: sum<i,j> in E do x[i,j];
\Problem name: graf.zpl
Minimize
 f:  + x#1#2 + x#2#3 + x#2#4 + x#4#5 + x#5#6 + x#3#5
  + x#3#6
Subject to
 v1_1:
  + x#1#2 = 1
 v2_1:
  + x#5#6 + x#3#6 = 1
 v3_1:
  - x#1#2 + x#2#4 + x#2#3 = 0
 v3_2:
  - x#2#3 + x#3#6 + x#3#5 = 0
 v3_3:
  - x#2#4 + x#4#5 = 0
 v3_4:
  - x#4#5 - x#3#5 + x#5#6 = 0
Bounds
 0 <= x#1#2 <= +inf
 0 <= x#2#3 <= +inf
 0 <= x#2#4 <= +inf
 0 <= x#4#5 <= +inf
 0 <= x#5#6 <= +inf
 0 <= x#3#5 <= +inf
 0 <= x#3#6 <= +inf
End
